Version identifier: 22.1.1.0 | 2022-11-28 | 9160aff4d
CPXPARAM_ClockType                               1
CPXPARAM_Read_DataCheck                          1
CPXPARAM_Threads                                 1
CPXPARAM_TimeLimit                               7200
CPXPARAM_MIP_Tolerances_AbsMIPGap                0
CPXPARAM_MIP_Tolerances_MIPGap                   0
CPXPARAM_MIP_Tolerances_Integrality              0
Tried aggregator 1 time.
MIP Presolve eliminated 27 rows and 9 columns.
MIP Presolve modified 18 coefficients.
Reduced MIP has 79464 rows, 28991 columns, and 264356 nonzeros.
Reduced MIP has 28991 binaries, 0 generals, 0 SOSs, and 0 indicators.
Presolve time = 0.22 sec. (113.49 ticks)
Probing time = 0.04 sec. (8.47 ticks)
Tried aggregator 1 time.
Detecting symmetries...
Reduced MIP has 79464 rows, 28991 columns, and 264356 nonzeros.
Reduced MIP has 28991 binaries, 0 generals, 0 SOSs, and 0 indicators.
Presolve time = 0.30 sec. (144.24 ticks)
Probing time = 0.03 sec. (7.32 ticks)
Clique table members: 44173.
MIP emphasis: balance optimality and feasibility.
MIP search method: dynamic search.
Parallel mode: none, using 1 thread.
Root relaxation solution time = 1293.20 sec. (772191.10 ticks)

        Nodes                                         Cuts/
   Node  Left     Objective  IInf  Best Integer    Best Bound    ItCnt     Gap

      0     0    25000.0000  7944                  25000.0000   197192         

Root node processing (before b&c):
  Real time             = 7200.11 sec. (3932616.03 ticks)
Sequential b&c:
  Real time             =    0.00 sec. (0.00 ticks)
                          ------------
Total (root+branch&cut) = 7200.11 sec. (3932616.03 ticks)
Solution is infeasible.

---------------------
@@@ MIP_time_limit_infeasible
Traceback (most recent call last):
  File "/scratch/scherif/DiverseSAT-journal_sup/DiverseSAT_Supplementary_Experiments/experiment-1/cplex/jobs/../solvers/CPLEX-IW-SE.py", line 105, in <module>
    print(f">>> Benchmark {os.path.basename(cnf_file)} k {k} OPT {int(prob.solution.get_objective_value())}"
  File "/users/scherif/.local/lib/python3.9/site-packages/cplex/_internal/_subinterfaces.py", line 7211, in get_objective_value
    return CPX_PROC.getobjval(self._env._e, self._cplex._lp)
  File "/users/scherif/.local/lib/python3.9/site-packages/cplex/_internal/_procedural.py", line 2055, in getobjval
    check_status(env, status)
  File "/users/scherif/.local/lib/python3.9/site-packages/cplex/_internal/_procedural.py", line 249, in __call__
    raise CplexSolverError(error_string, env, status)
cplex.exceptions.errors.CplexSolverError: CPLEX Error  1217: No solution exists.
